27384.6
49 51 97 41 75 36 4 58 59 74 67 8 93 53 92 40 3 12 45 35 14 63 17 82 94 48 80 27 29 25 6 21 56 10 23 15 87 99 50 76 73 37 62 28 33 65 34 31 70 5 44 77 61 96 69 55 89 32 52 54 2 13 26 64 18 95 1 57 72 91 71 7 78 85 24 16 39 66 43 81 46 47 98 19 38 60 83 30 90 22 88 20 42 9 11 86 68 0 79 84 
